variable T equal 300
log log.${T}
units           metal
boundary        p p p
atom_style      atomic
atom_modify     map array sort 10000 2.0
read_data         T${T}.dat
pair_style      eam/fs
pair_coeff      * * Al90Sm10_MendelevM_2014.eam.fs  Al Sm
mass            1  26.98	#Al
mass            2  150.36	#Sm
neighbor            2.0 bin
neigh_modify    delay 5
timestep 0.002
thermo 1000

fix             1 all npt temp ${T} ${T} 0.02 iso 0 0 0.2
thermo_style custom step temp pe etotal press vol lx ly lz density etotal enthalpy
run 100000
unfix 1

reset_timestep 0

fix             1 all nvt temp ${T} ${T} 0.1

shell "rm -f out*.colvars.*"
fix		2 all colvars configfile

thermo 10000

dump            1 all custom 50000 dump.${T} id type x y z
dump_modify 1 sort id

run 10000000
